n_res = 4;
rcap = [27, 25, 61, 61];
rtype = [1, 1, 2, 2];
n_tasks = 10;
modes = [ {1, 2, 3}, {4, 5, 6}, {7, 8, 9}, {10, 11, 12}, {13, 14, 15}, {16, 17, 18}, {19, 20, 21}, {22, 23, 24}, {25, 26, 27}, {28, 29, 30} ];
succ = [ {4, 8}, {5, 7, 8}, {10}, {6, 9}, {6, 9}, {10}, {10}, {}, {}, {} ];
n_opt = 30;
dur = [1, 2, 3, 1, 2, 8, 5, 8, 10, 2, 9, 10, 2, 8, 9, 7, 7, 8, 3, 4, 8, 3, 5, 7, 3, 4, 10, 3, 5, 8];
rreq = [| 10,  9,  8,  8,  7,  5,  2,  2,  2,  6,  6,  6, 10,  8,  7, 10, 10, 10,  5,  4,  2,  9,  8,  7,  8,  7,  7,  7,  6,  6
        |  5,  4,  4,  8,  6,  6,  4,  4,  4,  7,  6,  6,  8,  6,  5,  9,  8,  8,  8,  6,  5,  4,  4,  4,  7,  4,  4,  8,  7,  4
        |  6,  5,  4,  3,  2,  2,  3,  2,  1, 10,  7,  6,  7,  5,  4,  8,  8,  7,  7,  7,  6,  7,  7,  6,  9,  6,  5,  7,  5,  5
        |  7,  5,  4,  3,  3,  3, 10,  9,  9,  2,  1,  1,  9,  7,  6,  6,  8,  6,  7,  4,  2,  5,  3,  2,  9,  6,  3,  8,  8,  7 |];
